db/data/10057182112341126701777428952628613601.z3.out
-------------------
2500.167527998
